* ENCODING=ISO-8859-1
NAME          CPLEX
ROWS
 N  obj1    
 G  c1      
 G  c2      
 G  c3      
 G  c4      
 G  c5      
 G  c6      
 G  c7      
 G  c8      
 G  c9      
 G  c10     
 G  c11     
 G  c12     
 G  c13     
 G  c14     
 G  c15     
 G  c16     
 G  c17     
 G  c18     
 G  c19     
 G  c20     
 G  c21     
 G  c22     
 G  c23     
 G  c24     
 G  c25     
 G  c26     
 G  c27     
 G  c28     
 G  c29     
 G  c30     
 G  c31     
 G  c32     
 G  c33     
 G  c34     
 G  c35     
 G  c36     
 G  c37     
 G  c38     
 G  c39     
 G  c40     
 G  c41     
 G  c42     
 G  c43     
 G  c44     
 G  c45     
 G  c46     
 G  c47     
 G  c48     
 G  c49     
 G  c50     
 G  c51     
 G  c52     
 G  c53     
 G  c54     
 G  c55     
 G  c56     
 G  c57     
 G  c58     
 G  c59     
 G  c60     
COLUMNS
    MARK0000  'MARKER'                 'INTORG'
    x1        obj1                            1
    x1        c1                            361
    x1        c11                           803
    x1        c15                           517
    x1        c17                           239
    x1        c20                           993
    x1        c41                           235
    x1        c55                           491
    x2        obj1                            1
    x2        c3                            535
    x2        c7                            586
    x2        c10                           756
    x2        c14                           916
    x2        c22                           796
    x3        obj1                            1
    x3        c10                           176
    x3        c14                           120
    x3        c24                           389
    x3        c42                           785
    x3        c58                           407
    x4        obj1                            1
    x4        c6                            113
    x4        c29                           803
    x4        c40                           490
    x4        c43                           241
    x4        c56                           903
    x5        obj1                            1
    x5        c7                            444
    x5        c32                           170
    x6        obj1                            1
    x6        c5                            743
    x6        c7                            566
    x6        c15                           139
    x6        c17                           382
    x6        c21                           739
    x6        c25                           560
    x6        c27                           774
    x6        c42                           796
    x7        obj1                            1
    x7        c6                            995
    x7        c40                           407
    x7        c59                           189
    x8        obj1                            1
    x8        c20                           136
    x8        c22                           586
    x8        c23                           632
    x8        c26                           351
    x8        c27                           654
    x8        c38                           119
    x8        c60                           126
    x9        obj1                            1
    x9        c4                            811
    x9        c6                            183
    x9        c9                            918
    x9        c11                           957
    x9        c36                           460
    x9        c42                           873
    x9        c55                           786
    x9        c57                           121
    x10       obj1                            1
    x10       c7                            128
    x10       c10                           574
    x10       c31                           250
    x10       c35                           797
    x10       c48                           579
    x10       c50                           457
    x11       obj1                            1
    x11       c9                            677
    x11       c13                           372
    x11       c18                           275
    x11       c25                           459
    x11       c28                           827
    x11       c41                           459
    x11       c50                           541
    x12       obj1                            1
    x12       c3                            815
    x12       c9                            421
    x12       c16                           509
    x12       c48                           101
    x13       obj1                            1
    x13       c6                            264
    x13       c20                           750
    x13       c32                           438
    x13       c35                           812
    x13       c42                           606
    x13       c45                           652
    x13       c52                           422
    x13       c55                           309
    x14       obj1                            1
    x14       c12                           575
    x14       c14                           477
    x14       c21                           583
    x14       c50                           929
    x14       c54                           476
    x15       obj1                            1
    x15       c5                            754
    x15       c19                           530
    x15       c37                           120
    x15       c39                           455
    x15       c54                           921
    x15       c55                           877
    x16       obj1                            1
    x16       c6                            476
    x16       c8                            924
    x16       c12                           375
    x16       c60                           110
    x17       obj1                            1
    x17       c21                           669
    x17       c29                           705
    x17       c37                           717
    x17       c49                           481
    x17       c53                           683
    x18       obj1                            1
    x18       c5                            524
    x18       c9                            879
    x18       c13                           811
    x18       c26                           855
    x18       c32                           554
    x18       c42                           950
    x18       c59                           695
    x19       obj1                            1
    x19       c4                            165
    x19       c16                           453
    x19       c32                           994
    x19       c42                           678
    x20       obj1                            1
    x20       c5                            331
    x20       c15                           507
    x20       c18                           300
    x20       c30                           158
    x20       c32                           107
    x20       c40                           956
    x20       c44                           950
    x20       c58                           437
    x21       obj1                            1
    x21       c1                            363
    x21       c3                            231
    x21       c19                           870
    x21       c26                           165
    x22       obj1                            1
    x22       c3                            441
    x22       c11                           382
    x22       c24                           941
    x22       c33                           172
    x22       c34                           349
    x23       obj1                            1
    x23       c10                           543
    x23       c21                           764
    x23       c25                           524
    x23       c38                           868
    x23       c49                           945
    x23       c50                           847
    x23       c60                           459
    x24       obj1                            1
    x24       c1                            807
    x24       c18                           272
    x24       c21                           977
    x24       c30                           860
    x24       c52                           653
    x25       obj1                            1
    x25       c2                            541
    x25       c16                           262
    x25       c40                           489
    x25       c53                           578
    x25       c57                           924
    x26       obj1                            1
    x26       c1                            148
    x26       c13                           575
    x26       c20                           690
    x26       c25                           825
    x26       c37                           749
    x26       c46                           409
    x26       c50                           165
    x26       c51                           276
    x26       c59                           546
    x26       c60                           958
    x27       obj1                            1
    x27       c1                            713
    x27       c4                            168
    x27       c9                            817
    x27       c17                           196
    x27       c23                           702
    x27       c32                           913
    x27       c36                           722
    x27       c41                           334
    x27       c47                           218
    x27       c49                           424
    x28       obj1                            1
    x28       c16                           437
    x28       c18                           933
    x28       c34                           323
    x28       c40                           824
    x28       c43                           383
    x28       c47                           288
    x29       obj1                            1
    x29       c11                           754
    x29       c31                           124
    x29       c33                           420
    x29       c38                           855
    x30       obj1                            1
    x30       c12                           535
    x30       c34                           504
    x30       c54                           811
    x30       c56                           727
    x30       c57                           234
    x31       obj1                            1
    x31       c6                            929
    x31       c27                           405
    x31       c28                           217
    x31       c45                           191
    x31       c48                           320
    x31       c56                           587
    x32       obj1                            1
    x32       c40                           696
    x32       c53                           149
    x33       obj1                            1
    x33       c7                            818
    x33       c16                           903
    x33       c26                           265
    x34       obj1                            1
    x34       c7                            759
    x34       c9                            672
    x34       c27                           937
    x34       c35                           477
    x34       c48                           785
    x34       c54                           591
    x35       obj1                            1
    x35       c3                            955
    x35       c13                           459
    x35       c21                           589
    x35       c25                           325
    x35       c33                           354
    x35       c44                           794
    x35       c48                           916
    x35       c60                           628
    x36       obj1                            1
    x36       c37                           770
    x36       c39                           238
    x36       c49                           454
    x36       c54                           792
    x36       c55                           351
    x37       obj1                            1
    x37       c3                            383
    x37       c7                            250
    x37       c11                           910
    x37       c16                           589
    x37       c18                           160
    x37       c21                           728
    x37       c29                           327
    x37       c35                           554
    x37       c37                           423
    x37       c38                           120
    x37       c43                           339
    x38       obj1                            1
    x38       c17                           903
    x38       c25                           197
    x39       obj1                            1
    x39       c21                           907
    x39       c32                           406
    x39       c57                           823
    x40       obj1                            1
    x40       c35                           573
    x41       obj1                            1
    x41       c8                            116
    x42       obj1                            1
    x42       c1                            194
    x42       c10                           145
    x42       c17                           219
    x42       c30                           666
    x42       c31                           170
    x42       c35                           660
    x42       c39                           982
    x42       c46                           396
    x43       obj1                            1
    x43       c8                            346
    x43       c22                           145
    x43       c42                           110
    x44       obj1                            1
    x44       c4                            665
    x44       c5                            621
    x44       c9                            445
    x44       c10                           797
    x44       c14                           753
    x44       c17                           214
    x44       c20                           531
    x44       c34                           645
    x44       c41                           141
    x44       c45                           455
    x44       c49                           681
    x45       obj1                            1
    x45       c2                           1000
    x45       c5                            303
    x45       c9                            948
    x45       c11                           418
    x45       c18                           899
    x45       c20                           615
    x45       c25                           394
    x45       c28                           242
    x45       c30                           206
    x45       c46                           660
    x46       obj1                            1
    x46       c8                            510
    x46       c20                           201
    x46       c28                           406
    x46       c41                           721
    x46       c56                           729
    x46       c58                           151
    x47       obj1                            1
    x47       c2                            807
    x47       c3                            355
    x47       c6                            125
    x47       c16                           210
    x47       c26                           343
    x47       c41                           680
    x47       c42                           752
    x48       obj1                            1
    x48       c5                            989
    x48       c9                            692
    x48       c11                           762
    x48       c22                           316
    x48       c33                           259
    x48       c35                           985
    x49       obj1                            1
    x49       c5                            845
    x49       c58                           675
    x50       obj1                            1
    x50       c5                            858
    x50       c17                           783
    x50       c25                           793
    x50       c31                           641
    x50       c37                           196
    x50       c39                           937
    x50       c50                           229
    x50       c54                           976
    x51       obj1                            1
    x51       c18                           630
    x51       c27                           478
    x51       c33                           243
    x51       c36                           186
    x51       c45                           282
    x51       c60                           403
    x52       obj1                            1
    x52       c17                           836
    x52       c18                           376
    x52       c26                           958
    x52       c29                           330
    x52       c33                           894
    x52       c37                           448
    x52       c38                           759
    x52       c42                           580
    x52       c47                           533
    x52       c54                           525
    x52       c57                           422
    x53       obj1                            1
    x53       c8                            550
    x53       c10                           971
    x53       c17                           293
    x53       c36                           601
    x53       c44                           462
    x53       c49                           469
    x54       obj1                            1
    x54       c7                            869
    x54       c10                           797
    x54       c19                           578
    x54       c40                           137
    x54       c41                           652
    x54       c60                           221
    x55       obj1                            1
    x55       c2                            131
    x55       c33                           254
    x55       c34                           237
    x55       c47                           650
    x55       c51                           418
    x55       c52                           263
    x56       obj1                            1
    x56       c3                            553
    x56       c18                           578
    x56       c24                           972
    x56       c33                           638
    x56       c59                           530
    x56       c60                           848
    x57       obj1                            1
    x57       c15                           121
    x57       c16                           800
    x57       c23                           124
    x57       c44                           400
    x57       c45                           504
    x57       c50                           496
    x57       c54                           505
    x57       c55                           132
    x58       obj1                            1
    x58       c1                            156
    x58       c2                            780
    x58       c35                           470
    x58       c38                           142
    x58       c49                           797
    x58       c51                           320
    x59       obj1                            1
    x59       c3                            242
    x59       c7                            192
    x59       c8                            342
    x59       c10                           230
    x59       c11                           834
    x59       c27                           305
    x59       c34                           642
    x59       c40                           442
    x59       c48                           239
    x59       c49                           985
    x59       c54                           449
    x60       obj1                            1
    x60       c8                            391
    x60       c47                           328
    x60       c58                           885
    x60       c60                           893
    MARK0001  'MARKER'                 'INTEND'
RHS
    rhs       c1                           1371
    rhs       c2                           1630
    rhs       c3                           2255
    rhs       c4                            905
    rhs       c5                           2984
    rhs       c6                           1543
    rhs       c7                           2306
    rhs       c8                           1590
    rhs       c9                           3235
    rhs       c10                          2495
    rhs       c11                          2910
    rhs       c12                           743
    rhs       c13                          1109
    rhs       c14                          1133
    rhs       c15                           642
    rhs       c16                          2082
    rhs       c17                          2033
    rhs       c18                          2212
    rhs       c19                           989
    rhs       c20                          1958
    rhs       c21                          2978
    rhs       c22                           922
    rhs       c23                           729
    rhs       c24                          1151
    rhs       c25                          2039
    rhs       c26                          1469
    rhs       c27                          1777
    rhs       c28                           846
    rhs       c29                          1083
    rhs       c30                           945
    rhs       c31                           593
    rhs       c32                          1791
    rhs       c33                          1617
    rhs       c34                          1350
    rhs       c35                          2664
    rhs       c36                           985
    rhs       c37                          1712
    rhs       c38                          1432
    rhs       c39                          1306
    rhs       c40                          2221
    rhs       c41                          1611
    rhs       c42                          3065
    rhs       c43                           482
    rhs       c44                          1303
    rhs       c45                          1042
    rhs       c46                           733
    rhs       c47                          1009
    rhs       c48                          1470
    rhs       c49                          2618
    rhs       c50                          1832
    rhs       c51                           507
    rhs       c52                           669
    rhs       c53                           705
    rhs       c54                          3023
    rhs       c55                          1473
    rhs       c56                          1473
    rhs       c57                          1262
    rhs       c58                          1278
    rhs       c59                           980
    rhs       c60                          2323
BOUNDS
 LI bnd       x1        0
 LI bnd       x2        0
 LI bnd       x3        0
 LI bnd       x4        0
 LI bnd       x5        0
 LI bnd       x6        0
 LI bnd       x7        0
 LI bnd       x8        0
 LI bnd       x9        0
 LI bnd       x10       0
 LI bnd       x11       0
 LI bnd       x12       0
 LI bnd       x13       0
 LI bnd       x14       0
 LI bnd       x15       0
 LI bnd       x16       0
 LI bnd       x17       0
 LI bnd       x18       0
 LI bnd       x19       0
 LI bnd       x20       0
 LI bnd       x21       0
 LI bnd       x22       0
 LI bnd       x23       0
 LI bnd       x24       0
 LI bnd       x25       0
 LI bnd       x26       0
 LI bnd       x27       0
 LI bnd       x28       0
 LI bnd       x29       0
 LI bnd       x30       0
 LI bnd       x31       0
 LI bnd       x32       0
 LI bnd       x33       0
 LI bnd       x34       0
 LI bnd       x35       0
 LI bnd       x36       0
 LI bnd       x37       0
 LI bnd       x38       0
 LI bnd       x39       0
 LI bnd       x40       0
 LI bnd       x41       0
 LI bnd       x42       0
 LI bnd       x43       0
 LI bnd       x44       0
 LI bnd       x45       0
 LI bnd       x46       0
 LI bnd       x47       0
 LI bnd       x48       0
 LI bnd       x49       0
 LI bnd       x50       0
 LI bnd       x51       0
 LI bnd       x52       0
 LI bnd       x53       0
 LI bnd       x54       0
 LI bnd       x55       0
 LI bnd       x56       0
 LI bnd       x57       0
 LI bnd       x58       0
 LI bnd       x59       0
 LI bnd       x60       0
ENDATA
